10 10 10
50
7 4 10
4 4 2
1 6 8
1 7 3
5 9 9
7 3 4
4 4 9
5 7 7
10 5 8
2 10 5
8 4 7
10 8 8
1 2 8
1 1 1
7 3 8
6 10 10
4 1 4
2 10 8
7 3 3
4 3 4
9 7 9
6 3 8
7 5 10
1 5 1
10 9 8
7 8 10
4 3 3
8 5 5
10 9 1
9 7 8
2 3 9
8 1 10
1 6 2
7 8 1
2 6 5
9 2 3
4 8 9
2 9 10
2 4 4
4 4 5
8 6 10
10 1 9
10 1 3
8 8 5
8 3 2
9 2 10
3 3 1
3 9 3
8 5 3
7 9 4
